4 
5  21 33 44 
6  03 11 19 28 38 46 54 
7  01 10 17 25 32 40 47 55 
8  02 10 17 25 32 40 47 55 
9  02 10 17 25 32 39 47 54 
10  02 09 17 24 32 39 47 54 
11  02 09 17 24 32 39 47 54 
12  02 09 17 24 32 39 47 54 
13  02 09 17 24 32 39 47 54 
14  02 09 17 24 32 39 47 54 
15  02 09 17 24 32 39 47 54 
16  02 09 17 24 32 39 47 54 
17  02 09 17 24 32 39 47 54 
18  02 09 17 24 32 39 47 54 
19  02 09 17 24 32 39 47 54 
20  02 08 16 23 31 40 55 
21  10 25 40 55 
22  10 24 39 55 
23  09 21 
0 
